1 24 15 16 17 18 19 20 21 22 23 25 26 27 28 29 30 31 32
2 92 57 58 59 84 85 86 87 88 89 90 91 93 94 95 96 97 98
3 74 60 61 62 63 64 65 66 67 68 69 70 71 72 73 75 76 77 78 79 80 81 82 83
4 43 33 34 35 36 37 38 39 40 41 42 44 45 46 47 48 49 50 51 52 53 54
5 8 1 2 3 4 5 6 7 9 10 11 12 13 14
6 101 55 56 99 100 102 103 104 105 106 107
